c WARNING: for repeatability, setting FPU to use double precision
d VARIABLES            75036        
d CONSTRAINTS          266336       
c ============================[ Problem Statistics ]=============================
c |                                                                             |
c |  Number of variables:         75036                                         |
c |  Number of clauses:          266336                                         |
c |  Parse time:                   0.04 s                                       |
c |                                                                             |
c ============================[ Search Statistics ]==============================
c | Conflicts |          ORIGINAL         |          LEARNT          | Progress |
c |           |    Vars  Clauses Literals |    Limit  Clauses Lit/Cl |          |
c ===============================================================================
c |       100 |   54967   214314   539497 |    78581       99     82 | 26.746 % |
c |       250 |   54967   214314   539497 |    86439      249     40 | 26.746 % |
c |       475 |   54967   214308   539482 |    95083      474     39 | 26.746 % |
c |       812 |   54967   214308   539482 |   104592      811     30 | 26.746 % |
c |      1318 |   54967   214308   539482 |   115051     1317     90 | 26.746 % |
c |      2077 |   54967   214308   539482 |   126556     2076     70 | 26.746 % |
c |      3216 |   54967   214308   539482 |   139212     3215     67 | 26.746 % |
c |      4924 |   54967   214308   539482 |   153133     4923     58 | 26.746 % |
c |      7486 |   54967   214308   539482 |   168447     7485     69 | 26.746 % |
c |     11330 |   54967   214308   539482 |   185291    11329     90 | 26.746 % |
c |     17096 |   54967   214308   539482 |   203820    17095    105 | 26.746 % |
c |     25745 |   54967   214308   539482 |   224203    25744    111 | 26.746 % |
c |     38719 |   54967   214308   539482 |   246623    38718    118 | 26.746 % |
c |     58180 |   54967   214308   539482 |   271285    58179    117 | 26.746 % |
c |     87372 |   54967   214308   539482 |   298414    87371    129 | 26.746 % |
c |    131161 |   54967   214308   539482 |   328255   131160    134 | 26.746 % |
c |    196845 |   54967   214308   539482 |   361081   196844    140 | 26.746 % |
c |    295371 |   54967   214308   539482 |   397189   295370    155 | 26.746 % |
c |    443160 |   54967   214308   539482 |   436908    42450     99 | 26.746 % |
c |    664843 |   54967   214308   539482 |   480599   264133    135 | 26.746 % |
c |    997368 |   54967   214308   539482 |   528659   126671    136 | 26.746 % |
c |   1496156 |   54967   214308   539482 |   581524   110455    108 | 26.746 % |
c |   2244338 |   54967   214308   539482 |   639677   296044    114 | 26.746 % |
c |   3366612 |   54967   214308   539482 |   703645   145665    115 | 26.746 % |
c ===============================================================================
c restarts              : 7165
c conflicts             : 4084945        (2278 /sec)
c decisions             : 8200390        (0.00 % random) (4573 /sec)
c propagations          : 4436852520     (2474442 /sec)
c conflict literals     : 564424754      (39.45 % deleted)
d RESTARTS             7165
d FAILURES             4084945      
d NODES                8200390      
d BACKTRACKS           8200390      
d PROPAGATIONS         4436852520   
d NOGOODSIZE           138.17 
d MEMORY               729.00 
d TIME                 1793.07 

s UNKNOWN
